0001 2
0002 4
0003 10
0004 29
0005 28
0006 7
0007 12
0008 9
0009 24
0010 1
0011 17
0012 29
0013 9
0014 17
0015 24
0016 27
0017 15
0018 7
0019 0
0020 20
0021 2
0022 2
0023 16
0024 6
0025 0
0026 19
0027 19
0028 19
0029 31
0030 19
0031 19
0032 17
0033 26
0034 21
0035 25
0036 19
0037 11
0038 24
0039 20
0040 2
0041 6
0042 29
0043 20
0044 4
0045 15
0046 20
0047 1
0048 19
0049 5
0050 11
0051 6
0052 8
0053 22
0054 2
0055 17
0056 22
0057 15
0058 10
0059 31
0060 15
0061 12
0062 29
0063 20
0064 19
0065 1
0066 6
0067 19
0068 0
0069 27
0070 5
0071 27
0072 5
0073 26
0074 1
0075 25
0076 5
0077 10
0078 14
0079 13
0080 8
0081 19
0082 20
0083 7
0084 12
0085 27
0086 6
0087 29
0088 12
0089 0
0090 2
0091 0
0092 24
0093 18
0094 14
0095 13
0096 3
0097 23
0098 9
0099 19
0100 1
0101 24
0102 10
0103 3
0104 8
0105 5
0106 21
0107 11
0108 20
0109 14
0110 22
0111 18
0112 24
0113 2
0114 13
0115 31
0116 17
0117 30
0118 12
0119 10
0120 21
0121 0
0122 14
0123 8
0124 9
0125 3
0126 7
0127 0
0128 25
0129 27
0130 9
0131 16
0132 1
0133 14
0134 6
0135 29
0136 5
0137 19
0138 3
0139 7
0140 6
0141 14
0142 8
0143 1
0144 9
0145 12
0146 21
0147 13
0148 1
0149 18
0150 12
0151 15
0152 19
0153 17
0154 12
0155 27
0156 4
0157 30
0158 19
0159 20
0160 27
0161 29
0162 0
0163 2
0164 11
0165 25
0166 20
0167 15
0168 3
0169 9
0170 2
0171 1
0172 20
0173 21
0174 6
0175 10
0176 29
0177 16
0178 8
0179 12
0180 24
0181 2
0182 4
0183 16
0184 11
0185 10
0186 27
0187 5
0188 20
0189 19
0190 22
0191 12
0192 17
0193 20
0194 4
0195 6
0196 0
0197 15
0198 5
0199 3
0200 28
0201 1
0202 29
0203 13
0204 7
0205 7
0206 31
0207 14
0208 14
0209 6
0210 7
0211 12
0212 19
0213 19
0214 9
0215 3
0216 20
0217 25
0218 10
0219 16
0220 25
0221 19
0222 8
0223 0
0224 5
0225 2
0226 18
0227 2
0228 20
0229 4
0230 7
0231 14
0232 9
0233 27
0234 1
0235 3
0236 12
0237 20
0238 8
0239 23
0240 22
0241 15
0242 9
0243 13
0244 7
0245 0
0246 5
0247 11
0248 9
0249 10
0250 13
0251 28
0252 1
0253 0
0254 1
0255 5
0256 16
0257 25
0258 16
0259 16
0260 29
0261 16
0262 25
0263 18
0264 18
0265 5
0266 19
0267 23
0268 4
0269 15
0270 24
0271 2
0272 3
0273 12
0274 22
0275 9
0276 16
0277 2
0278 21
0279 9
0280 18
0281 20
0282 5
0283 10
0284 29
0285 8
0286 29
0287 0
0288 0
0289 0
0290 0
0291 0
0292 26
0293 13
0294 22
0295 20
0296 26
0297 10
0298 23
0299 1
0300 14
0301 17
0302 24
0303 0
0304 8
0305 18
0306 3
0307 16
0308 10
0309 6
0310 9
0311 2
0312 15
0313 23
0314 22
0315 12
0316 30
0317 0
0318 29
0319 25
0320 8
0321 1
0322 13
0323 9
0324 18
0325 28
0326 29
0327 1
0328 0
0329 28
0330 28
0331 28
0332 28
0333 4
0334 29
0335 2
0336 21
0337 7
0338 19
0339 6
0340 11
0341 11
0342 9
0343 8
0344 8
0345 27
0346 7
0347 12
0348 0
0349 19
0350 13
0351 0
0352 4
0353 9
0354 28
0355 22
0356 22
0357 11
0358 30
0359 8
0360 13
0361 24
0362 27
0363 26
0364 21
0365 20
0366 22
0367 7
0368 30
0369 13
0370 3
0371 28
0372 5
0373 29
0374 16
0375 21
0376 30
0377 17
0378 0
0379 12
0380 3
0381 14
0382 19
0383 28
0384 27
0385 19
0386 20
0387 26
0388 7
0389 25
0390 4
0391 29
0392 25
0393 3
0394 29
0395 8
0396 13
0397 29
0398 4
0399 29
0400 3
0401 30
0402 27
0403 20
0404 11
0405 3
0406 20
0407 18
0408 8
0409 2
0410 0
0411 8
0412 1
0413 2
0414 29
0415 9
0416 0
0417 18
0418 1
0419 5
0420 25
0421 19
0422 15
0423 13
0424 19
0425 18
0426 9
0427 22
0428 23
0429 25
0430 19
0431 10
0432 12
0433 3
0434 6
0435 12
0436 1
0437 3
0438 29
0439 13
0440 21
0441 24
0442 9
0443 5
0444 4
0445 4
0446 2
0447 0
0448 9
0449 13
0450 0
0451 3
0452 10
0453 28
0454 17
0455 9
0456 21
0457 13
0458 1
0459 0
0460 5
0461 0
0462 1
0463 3
0464 11
0465 0
0466 6
0467 27
0468 9
0469 0
0470 2
0471 20
0472 14
0473 1
0474 19
0475 9
0476 7
0477 4
0478 11
0479 18
0480 21
0481 2
0482 12
0483 0
0484 13
0485 2
0486 20
0487 10
0488 0
0489 12
0490 1
0491 8
0492 1
0493 2
0494 3
0495 9
0496 0
0497 0
0498 2
0499 24
0500 9
0501 15
0502 3
0503 23
0504 25
0505 29
0506 12
0507 19
0508 19
0509 2
0510 8
0511 3
0512 10
0513 18
0514 21
0515 5
0516 0
0517 19
0518 0
0519 0
0520 23
0521 4
0522 2
0523 22
0524 24
0525 9
0526 11
0527 20
0528 14
0529 5
0530 19
0531 27
0532 1
0533 9
0534 2
0535 0
0536 7
0537 4
0538 3
0539 8
0540 12
0541 13
0542 4
0543 9
